RT is False
Default write of storage_offers_DA.csv just to have a file (but constraint should be inactive)
Reading model...
...model read.
creating competitive generators file...
...competitive generators recorded.
Loading data...
.. day-ahead data read.
Compiling instance...
...instance created.
Creating Offer Mitigation (model will solve as dispatch if TRUE)...
NOTE: storage offers will not be mitigated
...storage offer mitigation file created
Converting model to MPEC...
...converted
NOTE: initial MIP solve with only storage competitive to get feasible solution
Solving...

Welcome to IBM(R) ILOG(R) CPLEX(R) Interactive Optimizer 12.9.0.0
  with Simplex, Mixed Integer & Barrier Optimizers
5725-A06 5725-A29 5724-Y48 5724-Y49 5724-Y54 5724-Y55 5655-Y21
Copyright IBM Corp. 1988, 2019.  All Rights Reserved.

Type 'help' for a list of available commands.
Type 'help' followed by a command name for more
information on commands.

CPLEX> Logfile 'cplex.log' closed.
Logfile 'C:\Users\Luke\Desktop\test919\logs\tmp3tdgtnjy.cplex.log' open.
CPLEX> New value for parallel optimization mode: -1
CPLEX> New value for mixed integer optimality gap tolerance: 0.01
CPLEX> New value for integrality tolerance: 1e-09
CPLEX> New value for feasibility tolerance: 0.01
CPLEX> New value for deterministic time limit in ticks: 75000
CPLEX> Problem 'C:\Users\Luke\Desktop\test919\logs\tmprpxzwz5a.pyomo.lp' read.
Read time = 0.22 sec. (14.73 ticks)
CPLEX> Problem name         : C:\Users\Luke\Desktop\test919\logs\tmprpxzwz5a.pyomo.lp
Objective sense      : Maximize
Variables            :   53805  [Nneg: 1,  Box: 22000,  Free: 4464,
                                 Binary: 27340]
Objective nonzeros   :    9057
Linear constraints   :  123205  [Less: 41346,  Greater: 59096,  Equal: 22763]
  Nonzeros           :  291781
  RHS nonzeros       :   67519

Variables            : Min LB: -5000.000        Max UB: 1000000.       
Objective nonzeros   : Min   : 0.1000000        Max   : 2500.000       
Linear constraints   :
  Nonzeros           : Min   : 0.1000000        Max   : 1000000.       
  RHS nonzeros       : Min   : 0.1000000        Max   : 1000000.       
CPLEX> CPXPARAM_Parallel                                -1
CPXPARAM_Simplex_Tolerances_Feasibility          0.01
CPXPARAM_DetTimeLimit                            75000
CPXPARAM_MIP_Tolerances_MIPGap                   0.01
CPXPARAM_MIP_Tolerances_Integrality              1.0000000000000001e-09
Tried aggregator 3 times.
MIP Presolve eliminated 88578 rows and 18934 columns.
MIP Presolve added 3400 rows and 0 columns.
MIP Presolve modified 24836 coefficients.
Aggregator did 12952 substitutions.
Reduced MIP has 25075 rows, 21395 columns, and 71418 nonzeros.
Reduced MIP has 8452 binaries, 0 generals, 0 SOSs, and 0 indicators.
Presolve time = 0.25 sec. (173.74 ticks)
Probing fixed 402 vars, tightened 2891 bounds.
Probing time = 1.41 sec. (893.32 ticks)
Tried aggregator 2 times.
MIP Presolve eliminated 905 rows and 804 columns.
MIP Presolve modified 2241 coefficients.
Aggregator did 41 substitutions.
Reduced MIP has 24129 rows, 20550 columns, and 68681 nonzeros.
Reduced MIP has 8050 binaries, 0 generals, 0 SOSs, and 0 indicators.
Presolve time = 0.09 sec. (70.68 ticks)
Probing time = 0.02 sec. (16.68 ticks)
Clique table members: 6411.
MIP emphasis: balance optimality and feasibility.
MIP search method: dynamic search.
Parallel mode: opportunistic, using up to 24 threads.
Root relaxation solution time = 0.38 sec. (285.69 ticks)

        Nodes                                         Cuts/
   Node  Left     Objective  IInf  Best Integer    Best Bound    ItCnt     Gap

      0     0     2880.6112  2127                   2880.6112     6813         
      0     0     2880.6112   696                   Cuts: 654     7126         
      0     0     2877.8255   573                   Cuts: 502     7333         
      0     0     2872.7998   506                   Cuts: 284     7432         
      0     0     2872.7998   491                    Cuts: 94     7457         
      0     0     2872.0532   473                    Cuts: 82     7476         
      0     0     2872.0532   464                    Cuts: 54     7483         
      0     0     2872.0532   463                    Cuts: 41     7487         
      0     0     2872.0532   457                    Cuts: 36     7489         
      0     8    infeasible                          Fract: 4     7572         
Elapsed time = 10.08 sec. (6752.02 ticks, tree = 0.02 MB, solutions = 0)
    383   122    infeasible                         2817.0513    10566         
    710   301     2731.0010   420                   2817.0513    21828         
   1251   542     2366.2467   385                   2817.0513    24586         
   2293  1895     2731.0010   366                   2817.0513    27894         
   3070  2165     2452.2970   351                   2817.0513    28001         
   3678  2886      908.8880   340                   2817.0513    28158         
   4550  3392     2366.2467   335                   2817.0513    28725         
   5624  3901     1335.0641   318                   2817.0513    29151         
   6708  5325     2716.3011   324                   2817.0513    29201         
   9897  8716     2817.0513   368                   2817.0513    30939         
Elapsed time = 18.69 sec. (9854.08 ticks, tree = 85.77 MB, solutions = 1)
*  9940+ 2512                         1599.3309     2817.0513            76.14%
  12103  3425     2784.0598   322     1599.3309     2817.0513    36210   76.14%
  12550  5022    infeasible           1599.3309     2817.0513    49871   76.14%
  13697   181     1692.6249     4     1599.3309     2817.0513    51177   76.14%
  14106   972     2527.4384     3     1599.3309     2817.0513    63272   76.14%
  14848   929     2500.7508     1     1599.3309     2817.0513    58451   76.14%
  15486   298        cutoff           2686.6137     2817.0513    64682    4.86%
  16179   317        cutoff           2686.6137     2817.0513    64765    4.86%
  17146   490     2714.4724     3     2686.6137     2752.2697    73288    2.44%
  17799   438        cutoff           2686.6137     2752.2697    73011    2.44%
Elapsed time = 42.48 sec. (21781.25 ticks, tree = 2.64 MB, solutions = 2)
  18262   560     2713.1312     3     2686.6137     2752.2697    73702    2.44%
  18626   656     2713.1312     3     2686.6137     2752.2697    74483    2.44%
  18953   754     2716.0058     1     2686.6137     2752.2697    75329    2.44%
  19232   757        cutoff           2686.6137     2752.2697    75350    2.44%
  19508   769     2716.0058     2     2686.6137     2752.2697    75435    2.44%
  19755   842     2714.4724     3     2686.6137     2752.2697    75813    2.44%
  20020   842     2714.4724     3     2686.6137     2752.2697    75818    2.44%
  20346   876     2716.0058     3     2686.6137     2752.2697    76000    2.44%
  20672   910     2714.4724     3     2686.6137     2752.2697    76252    2.44%
  20974  1053        cutoff           2686.6137     2752.2697    77201    2.44%
Elapsed time = 53.33 sec. (31350.80 ticks, tree = 5.64 MB, solutions = 2)
  21247   999     2723.8660     1     2686.6137     2752.2697    76790    2.44%
  21507  1065     2713.1312     2     2686.6137     2752.2697    77316    2.44%
  21784  1090     2714.4724     4     2686.6137     2752.2697    77573    2.44%
  22029  1120     2688.5819     1     2686.6137     2752.2697    77849    2.44%
  22265  1159     2714.4724     3     2686.6137     2752.2697    78328    2.44%
  22541  1330        cutoff           2686.6137     2752.2697    80975    2.44%
  22760  1286        cutoff           2686.6137     2752.2697    80111    2.44%
  23032  1383        cutoff           2686.6137     2752.2697    81957    2.44%
  23276  1379     2724.7699     2     2686.6137     2752.2697    81752    2.44%
  23519  1456     2716.0058     4     2686.6137     2752.2697    83612    2.44%
Elapsed time = 64.03 sec. (40925.62 ticks, tree = 8.09 MB, solutions = 2)
  23751  1417        cutoff           2686.6137     2752.2697    82916    2.44%
  23997  1474        cutoff           2686.6137     2752.2697    85364    2.44%
  24231  1475     2724.7699     1     2686.6137     2752.2697    85162    2.44%
  24439  1520        cutoff           2686.6137     2752.2697    87319    2.44%
  24641  1497     2716.0058     3     2686.6137     2752.2697    87050    2.44%
  24834  1549        cutoff           2686.6137     2752.2697    87894    2.44%
  25041  1586     2716.0058     1     2686.6137     2752.2697    88740    2.44%
  25261  1599        cutoff           2686.6137     2752.2697    88883    2.44%
  25465  1625        cutoff           2686.6137     2752.2697    89387    2.44%
  25647  1662     2724.7699     3     2686.6137     2752.2697    89644    2.44%
Elapsed time = 74.28 sec. (50527.72 ticks, tree = 9.36 MB, solutions = 2)
  25827  1671        cutoff           2686.6137     2752.2697    89721    2.44%
  26005  1726     2716.0058     3     2686.6137     2752.2697    91269    2.44%
  26211  1758     2706.8256     5     2686.6137     2752.2697    91609    2.44%
  26370  1817     2708.3589     2     2686.6137     2752.2697    93212    2.44%
  26558  1796        cutoff           2686.6137     2752.2697    92728    2.44%
  26717  1835     2716.0058     3     2686.6137     2752.2697    93347    2.44%
  26896  1862     2716.0058     3     2686.6137     2752.2697    93644    2.44%
  27068  1884        cutoff           2686.6137     2752.2697    94381    2.44%
  27277  1917     2714.4724     3     2686.6137     2752.2697    94849    2.44%
  27492  1955        cutoff           2686.6137     2752.2697    95401    2.44%
Elapsed time = 84.80 sec. (60120.43 ticks, tree = 11.33 MB, solutions = 2)
  27717  2016        cutoff           2686.6137     2752.2697    96135    2.44%
  27915  1981        cutoff           2686.6137     2752.2697    95807    2.44%
  28159  1975     2716.0058     1     2686.6137     2752.2697    95794    2.44%
  28375  2023        cutoff           2686.6137     2752.2697    96167    2.44%
  28586  2120        cutoff           2686.6137     2752.2697    97685    2.44%
  28743  2121        cutoff           2686.6137     2752.2697    97800    2.44%
  28945  2271     2716.0058     1     2686.6137     2752.2697   101000    2.44%
  29161  2212        cutoff           2686.6137     2752.2697    99876    2.44%
  29342  2359     2690.0997     3     2686.6137     2730.7013   102505    1.64%
  29531  2263     2717.1231     1     2686.6137     2730.7013   100623    1.64%
Elapsed time = 96.42 sec. (69734.38 ticks, tree = 13.55 MB, solutions = 2)
  29742  2303        cutoff           2686.6137     2730.7013   101606    1.64%
  29922  2376        cutoff           2686.6137     2730.7013   102709    1.64%
  30084  2364     2714.4724     3     2686.6137     2730.7013   102535    1.64%
  30208  2433        cutoff           2686.6137     2730.7013   104035    1.64%
  30337  2517     2724.7699     4     2686.6137     2730.7013   106343    1.64%

Implied bound cuts applied:  9
Flow cuts applied:  14
Mixed integer rounding cuts applied:  1

Root node processing (before b&c):
  Real time             =    9.70 sec. (6744.73 ticks)
Parallel b&c, 24 threads:
  Real time             =   90.05 sec. (68605.05 ticks)
  Sync time (average)   =    1.22 sec.
  Wait time (average)   =    0.08 sec.
                          ------------
Total (root+branch&cut) =   99.75 sec. (75349.78 ticks)

Solution pool: 2 solutions saved.

MIP - Deterministic time limit exceeded, integer feasible:  Objective =  2.6866136968e+03
Current MIP best bound =  2.7307012544e+03 (gap = 44.0876, 1.64%)
Solution time =   99.75 sec.  Iterations = 109442  Nodes = 30382 (2694)
Deterministic time = 75349.94 ticks  (755.39 ticks/sec)

CPLEX> Incumbent solution written to file 'C:\Users\Luke\Desktop\test919\logs\tmpiv9sb0ff.cplex.sol'.
CPLEX> NOTE: no warmstart specified for MIP iteration, default behavior is true
NOTE: resolving with all competitive generators using storage-only solution to warmstart
Solving...

Welcome to IBM(R) ILOG(R) CPLEX(R) Interactive Optimizer 12.9.0.0
  with Simplex, Mixed Integer & Barrier Optimizers
5725-A06 5725-A29 5724-Y48 5724-Y49 5724-Y54 5724-Y55 5655-Y21
Copyright IBM Corp. 1988, 2019.  All Rights Reserved.

Type 'help' for a list of available commands.
Type 'help' followed by a command name for more
information on commands.

CPLEX> Logfile 'cplex.log' closed.
Logfile 'C:\Users\Luke\Desktop\test919\logs\tmpi684p9nw.cplex.log' open.
CPLEX> New value for parallel optimization mode: -1
CPLEX> New value for mixed integer optimality gap tolerance: 0.01
CPLEX> New value for integrality tolerance: 1e-09
CPLEX> New value for feasibility tolerance: 0.01
CPLEX> New value for deterministic time limit in ticks: 75000
CPLEX> Problem 'C:\Users\Luke\Desktop\test919\logs\tmph4su2nbx.pyomo.lp' read.
Read time = 0.20 sec. (14.75 ticks)
CPLEX> MIP start file 'C:\Users\Luke\Desktop\test919\logs\tmpjd8_kzkv.cplex.mst' read.
CPLEX> Problem name         : C:\Users\Luke\Desktop\test919\logs\tmph4su2nbx.pyomo.lp
Objective sense      : Maximize
Variables            :   54525  [Nneg: 1,  Box: 22720,  Free: 4464,
                                 Binary: 27340]
Objective nonzeros   :    9777
Linear constraints   :  123205  [Less: 41346,  Greater: 59096,  Equal: 22763]
  Nonzeros           :  291781
  RHS nonzeros       :   67519

Variables            : Min LB: -5000.000        Max UB: 1000000.       
Objective nonzeros   : Min   : 0.1000000        Max   : 2500.000       
Linear constraints   :
  Nonzeros           : Min   : 0.1000000        Max   : 1000000.       
  RHS nonzeros       : Min   : 0.1000000        Max   : 1000000.       
CPLEX> CPXPARAM_Parallel                                -1
CPXPARAM_Simplex_Tolerances_Feasibility          0.01
CPXPARAM_DetTimeLimit                            75000
CPXPARAM_MIP_Tolerances_MIPGap                   0.01
CPXPARAM_MIP_Tolerances_Integrality              1.0000000000000001e-09
Warning:  No solution found from 1 MIP starts.
Retaining values of one MIP start for possible repair.
Tried aggregator 3 times.
MIP Presolve eliminated 88578 rows and 19654 columns.
MIP Presolve added 3400 rows and 0 columns.
MIP Presolve modified 24836 coefficients.
Aggregator did 12952 substitutions.
Reduced MIP has 25075 rows, 21395 columns, and 71418 nonzeros.
Reduced MIP has 8452 binaries, 0 generals, 0 SOSs, and 0 indicators.
Presolve time = 0.23 sec. (174.10 ticks)
Probing fixed 402 vars, tightened 2891 bounds.
Probing time = 1.45 sec. (893.32 ticks)
Tried aggregator 2 times.
MIP Presolve eliminated 905 rows and 804 columns.
MIP Presolve modified 2241 coefficients.
Aggregator did 41 substitutions.
Reduced MIP has 24129 rows, 20550 columns, and 68681 nonzeros.
Reduced MIP has 8050 binaries, 0 generals, 0 SOSs, and 0 indicators.
Presolve time = 0.11 sec. (70.68 ticks)
Probing time = 0.03 sec. (16.68 ticks)
Clique table members: 6411.
MIP emphasis: balance optimality and feasibility.
MIP search method: dynamic search.
Parallel mode: opportunistic, using up to 24 threads.
Root relaxation solution time = 0.36 sec. (285.69 ticks)

        Nodes                                         Cuts/
   Node  Left     Objective  IInf  Best Integer    Best Bound    ItCnt     Gap

      0     0     2880.6112  2127                   2880.6112     6813         
      0     0     2880.6112   696                   Cuts: 654     7126         
      0     0     2877.8255   573                   Cuts: 502     7333         
      0     0     2872.7998   506                   Cuts: 284     7432         
      0     0     2872.7998   491                    Cuts: 94     7457         
      0     0     2872.0532   473                    Cuts: 82     7476         
      0     0     2872.0532   464                    Cuts: 54     7483         
      0     0     2872.0532   463                    Cuts: 41     7487         
      0     0     2872.0532   457                    Cuts: 36     7489         
Repair heuristic found nothing.
      0    10    infeasible                          Fract: 4     7586         
Elapsed time = 10.47 sec. (6839.79 ticks, tree = 0.02 MB, solutions = 0)
    309    45     1230.7879   413                   2817.0513     8064         
    792   244    -1881.0097   414                   2817.0513    19017         
   1411   492     1549.1721   388                   2817.0513    22827         
   2397  1054    -8771.9462   355                   2817.0513    24808         
   3311  1559     2258.5931   352                   2817.0513    25879         
   4050  3017     1479.6186   349                   2817.0513    27135         
   5006  3437     2739.7166   369                   2817.0513    27171         
   6124  4234     2739.7166   340                   2817.0513    27269         
   6972  4765     2817.0513   211                   2817.0513    28001         
   9233  8150     2703.2471   138                   2817.0513    46505         
Elapsed time = 19.33 sec. (9943.85 ticks, tree = 77.49 MB, solutions = 0)
* 10030+ 3260                         2689.3111     2817.0513             4.75%
* 10948  3257      integral     0     2703.2316     2817.0513    54353    4.21%
  13231  3031        cutoff           2703.2316     2817.0513    58543    4.21%
* 13943+ 3114                         2703.2576     2817.0513             4.21%

GUB cover cuts applied:  1
Clique cuts applied:  76
Cover cuts applied:  33
Implied bound cuts applied:  129
Flow cuts applied:  193
Mixed integer rounding cuts applied:  105
Gomory fractional cuts applied:  128
Warning: integer solution contains unscaled infeasibilities.

Root node processing (before b&c):
  Real time             =   10.00 sec. (6833.04 ticks)
Parallel b&c, 24 threads:
  Real time             =   17.25 sec. (8440.26 ticks)
  Sync time (average)   =    0.27 sec.
  Wait time (average)   =    0.00 sec.
                          ------------
Total (root+branch&cut) =   27.25 sec. (15273.30 ticks)

Solution pool: 6 solutions saved.

Maximum unscaled integer infeasibility = 0.007414.
MIP - Integer optimal, tolerance (0.01/1e-06):  Objective =  2.7032576249e+03
Current MIP best bound =  2.7299148754e+03 (gap = 26.6573, 0.99%)
Solution time =   27.27 sec.  Iterations = 70374  Nodes = 13943 (3115)
Deterministic time = 15273.45 ticks  (560.19 ticks/sec)

CPLEX> Incumbent solution written to file 'C:\Users\Luke\Desktop\test919\logs\tmp4mv3z0n_.cplex.sol'.
CPLEX> Exporting results... 
